100 100
13 35
2 16
5 39
27 45
30 41
47 45
9 14
18 15
30 45
17 31
11 19
26 14
3 36
17 47
25 38
12 14
20 37
13 27
1 29
41 46
21 36
2 49
29 3
30 3
27 9
38 47
29 18
13 10
9 17
9 37
11 36
20 46
42 4
45 7
28 14
40 3
36 30
19 10
37 9
20 14
36 32
12 42
34 17
43 28
48 30
47 9
42 33
30 42
14 10
39 23
50 33
6 5
41 46
4 16
16 3
1 45
24 14
9 28
35 35
16 25
10 43
26 15
48 4
40 32
24 13
8 49
7 5
50 17
43 45
7 6
48 43
47 40
48 26
11 48
5 31
14 9
41 46
13 7
37 10
42 6
7 50
13 33
46 49
16 40
13 1
8 1
28 19
11 2
15 6
46 42
24 28
46 47
36 41
43 37
34 4
31 32
47 12
38 41
17 44
14 16
